* #variable= 1292 #constraint= 664 
+1 x1258 = 0 ;
+1 x98 -1 x354 = 0 ;
+1 x354 -1 x535 = 0 ;
+1 x535 -1 x667 = 0 ;
+1 x667 -1 x766 = 0 ;
+1 x766 -1 x845 = 0 ;
+1 x845 -1 x910 = 0 ;
+1 x970 +2 x986 +4 x1002 +8 x1018 +16 x1034 +32 x1050 +64 x1066 +128 x1082 +256 x1098 +512 x1114 +1024 x1130 +2048 x1146 +4096 x1162 +8192 x1178 +16384 x1194 +32768 x1210 +2 x971 +4 x987 +8 x1003 +16 x1019 +32 x1035 +64 x1051 +128 x1067 +256 x1083 +512 x1099 +1024 x1115 +2048 x1131 +4096 x1147 +8192 x1163 +16384 x1179 +32768 x1195 +65536 x1211 +4 x972 +8 x988 +16 x1004 +32 x1020 +64 x1036 +128 x1052 +256 x1068 +512 x1084 +1024 x1100 +2048 x1116 +4096 x1132 +8192 x1148 +16384 x1164 +32768 x1180 +65536 x1196 +131072 x1212 +8 x973 +16 x989 +32 x1005 +64 x1021 +128 x1037 +256 x1053 +512 x1069 +1024 x1085 +2048 x1101 +4096 x1117 +8192 x1133 +16384 x1149 +32768 x1165 +65536 x1181 +131072 x1197 +262144 x1213 +16 x974 +32 x990 +64 x1006 +128 x1022 +256 x1038 +512 x1054 +1024 x1070 +2048 x1086 +4096 x1102 +8192 x1118 +16384 x1134 +32768 x1150 +65536 x1166 +131072 x1182 +262144 x1198 +524288 x1214 +32 x975 +64 x991 +128 x1007 +256 x1023 +512 x1039 +1024 x1055 +2048 x1071 +4096 x1087 +8192 x1103 +16384 x1119 +32768 x1135 +65536 x1151 +131072 x1167 +262144 x1183 +524288 x1199 +1048576 x1215 +64 x976 +128 x992 +256 x1008 +512 x1024 +1024 x1040 +2048 x1056 +4096 x1072 +8192 x1088 +16384 x1104 +32768 x1120 +65536 x1136 +131072 x1152 +262144 x1168 +524288 x1184 +1048576 x1200 +2097152 x1216 +128 x977 +256 x993 +512 x1009 +1024 x1025 +2048 x1041 +4096 x1057 +8192 x1073 +16384 x1089 +32768 x1105 +65536 x1121 +131072 x1137 +262144 x1153 +524288 x1169 +1048576 x1185 +2097152 x1201 +4194304 x1217 +256 x978 +512 x994 +1024 x1010 +2048 x1026 +4096 x1042 +8192 x1058 +16384 x1074 +32768 x1090 +65536 x1106 +131072 x1122 +262144 x1138 +524288 x1154 +1048576 x1170 +2097152 x1186 +4194304 x1202 +8388608 x1218 +512 x979 +1024 x995 +2048 x1011 +4096 x1027 +8192 x1043 +16384 x1059 +32768 x1075 +65536 x1091 +131072 x1107 +262144 x1123 +524288 x1139 +1048576 x1155 +2097152 x1171 +4194304 x1187 +8388608 x1203 +16777216 x1219 +1024 x980 +2048 x996 +4096 x1012 +8192 x1028 +16384 x1044 +32768 x1060 +65536 x1076 +131072 x1092 +262144 x1108 +524288 x1124 +1048576 x1140 +2097152 x1156 +4194304 x1172 +8388608 x1188 +16777216 x1204 +33554432 x1220 +2048 x981 +4096 x997 +8192 x1013 +16384 x1029 +32768 x1045 +65536 x1061 +131072 x1077 +262144 x1093 +524288 x1109 +1048576 x1125 +2097152 x1141 +4194304 x1157 +8388608 x1173 +16777216 x1189 +33554432 x1205 +67108864 x1221 +4096 x982 +8192 x998 +16384 x1014 +32768 x1030 +65536 x1046 +131072 x1062 +262144 x1078 +524288 x1094 +1048576 x1110 +2097152 x1126 +4194304 x1142 +8388608 x1158 +16777216 x1174 +33554432 x1190 +67108864 x1206 +134217728 x1222 +8192 x983 +16384 x999 +32768 x1015 +65536 x1031 +131072 x1047 +262144 x1063 +524288 x1079 +1048576 x1095 +2097152 x1111 +4194304 x1127 +8388608 x1143 +16777216 x1159 +33554432 x1175 +67108864 x1191 +134217728 x1207 +268435456 x1223 +16384 x984 +32768 x1000 +65536 x1016 +131072 x1032 +262144 x1048 +524288 x1064 +1048576 x1080 +2097152 x1096 +4194304 x1112 +8388608 x1128 +16777216 x1144 +33554432 x1160 +67108864 x1176 +134217728 x1192 +268435456 x1208 +536870912 x1224 +32768 x985 +65536 x1001 +131072 x1017 +262144 x1033 +524288 x1049 +1048576 x1065 +2097152 x1081 +4194304 x1097 +8388608 x1113 +16777216 x1129 +33554432 x1145 +67108864 x1161 +134217728 x1177 +268435456 x1193 +536870912 x1209 +1073741824 x1225 -1 x34 -2 x35 -4 x36 -8 x37 -16 x38 -32 x39 -64 x40 -128 x41 -256 x42 -512 x43 -1024 x44 -2048 x45 -4096 x46 -8192 x47 -16384 x48 -32768 x49 -65536 x50 -131072 x51 -262144 x52 -524288 x53 -1048576 x54 -2097152 x55 -4194304 x56 -8388608 x57 -16777216 x58 -33554432 x59 -67108864 x60 -134217728 x61 -268435456 x62 -536870912 x63 -1073741824 x64 -2147483648 x65 = 0; 
+1 x34 -1 x1 +2 x35 -2 x2 +4 x36 -4 x3 +8 x37 -8 x4 +16 x38 -16 x5 +32 x39 -32 x6 +64 x40 -64 x7 +128 x41 -128 x8 +256 x42 -256 x9 +512 x43 -512 x10 +1024 x44 -1024 x11 +2048 x45 -2048 x12 +4096 x46 -4096 x13 +8192 x47 -8192 x14 +16384 x48 -16384 x15 +32768 x49 -32768 x16 +65536 x50 -65536 x17 +131072 x51 -131072 x18 +262144 x52 -262144 x19 +524288 x53 -524288 x20 +1048576 x54 -1048576 x21 +2097152 x55 -2097152 x22 +4194304 x56 -4194304 x23 +8388608 x57 -8388608 x24 +16777216 x58 -16777216 x25 +33554432 x59 -33554432 x26 +67108864 x60 -67108864 x27 +134217728 x61 -134217728 x28 +268435456 x62 -268435456 x29 +536870912 x63 -536870912 x30 +1073741824 x64 -1073741824 x31 +2147483648 x65 -2147483648 x32 >= 1 ;
+1 x1259 = 0 ;
+2 x355 +1 x356 -1 x100 -1 x99 = 0 ;
+1 x356 -1 x536 = 0 ;
+1 x536 -1 x668 = 0 ;
+1 x668 -1 x767 = 0 ;
+1 x767 -1 x846 = 0 ;
+1 x846 -1 x911 = 0 ;
+1 x1260 = 0 ;
+2 x357 +1 x358 -1 x103 -1 x101 -1 x102 = 0 ;
+2 x537 +1 x538 -1 x355 -1 x358 = 0 ;
+1 x538 -1 x669 = 0 ;
+1 x669 -1 x768 = 0 ;
+1 x768 -1 x847 = 0 ;
+1 x847 -1 x912 = 0 ;
+1 x1261 = 0 ;
+2 x359 +1 x360 -1 x106 -1 x104 -1 x105 = 0 ;
+1 x107 -1 x414 = 0 ;
+2 x539 +1 x540 -1 x414 -1 x360 -1 x357 = 0 ;
+2 x670 +1 x671 -1 x537 -1 x540 = 0 ;
+1 x671 -1 x769 = 0 ;
+1 x769 -1 x848 = 0 ;
+1 x848 -1 x913 = 0 ;
+1 x1262 = 0 ;
+2 x361 +1 x362 -1 x110 -1 x108 -1 x109 = 0 ;
+2 x415 +1 x416 -1 x112 -1 x111 = 0 ;
+2 x541 +1 x542 -1 x416 -1 x362 -1 x359 = 0 ;
+2 x672 +1 x673 -1 x539 -1 x542 = 0 ;
+2 x770 +1 x771 -1 x670 -1 x673 = 0 ;
+1 x771 -1 x849 = 0 ;
+1 x849 -1 x914 = 0 ;
+1 x1263 = 0 ;
+2 x363 +1 x364 -1 x115 -1 x113 -1 x114 = 0 ;
+2 x417 +1 x418 -1 x118 -1 x116 -1 x117 = 0 ;
+2 x543 +1 x544 -1 x418 -1 x364 -1 x361 = 0 ;
+1 x415 -1 x595 = 0 ;
+2 x674 +1 x675 -1 x595 -1 x544 -1 x541 = 0 ;
+2 x772 +1 x773 -1 x672 -1 x675 = 0 ;
+2 x850 +1 x851 -1 x770 -1 x773 = 0 ;
+1 x851 -1 x915 = 0 ;
+1 x1264 = 0 ;
+2 x365 +1 x366 -1 x121 -1 x119 -1 x120 = 0 ;
+2 x419 +1 x420 -1 x124 -1 x122 -1 x123 = 0 ;
+1 x125 -1 x462 = 0 ;
+2 x545 +1 x546 -1 x420 -1 x366 -1 x363 = 0 ;
+2 x596 +1 x597 -1 x462 -1 x417 = 0 ;
+2 x676 +1 x677 -1 x597 -1 x546 -1 x543 = 0 ;
+2 x774 +1 x775 -1 x674 -1 x677 = 0 ;
+2 x852 +1 x853 -1 x772 -1 x775 = 0 ;
+2 x916 +1 x917 -1 x850 -1 x853 = 0 ;
+1 x1265 = 0 ;
+2 x367 +1 x368 -1 x128 -1 x126 -1 x127 = 0 ;
+2 x421 +1 x422 -1 x131 -1 x129 -1 x130 = 0 ;
+2 x463 +1 x464 -1 x133 -1 x132 = 0 ;
+2 x547 +1 x548 -1 x422 -1 x368 -1 x365 = 0 ;
+2 x598 +1 x599 -1 x464 -1 x419 = 0 ;
+2 x678 +1 x679 -1 x599 -1 x548 -1 x545 = 0 ;
+1 x596 -1 x727 = 0 ;
+2 x776 +1 x777 -1 x727 -1 x679 -1 x676 = 0 ;
+2 x854 +1 x855 -1 x774 -1 x777 = 0 ;
+2 x918 +1 x919 -1 x852 -1 x855 = 0 ;
+1 x1266 = 0 ;
+2 x369 +1 x370 -1 x136 -1 x134 -1 x135 = 0 ;
+2 x423 +1 x424 -1 x139 -1 x137 -1 x138 = 0 ;
+2 x465 +1 x466 -1 x142 -1 x140 -1 x141 = 0 ;
+2 x549 +1 x550 -1 x424 -1 x370 -1 x367 = 0 ;
+2 x600 +1 x601 -1 x463 -1 x421 -1 x466 = 0 ;
+2 x680 +1 x681 -1 x601 -1 x550 -1 x547 = 0 ;
+1 x598 -1 x728 = 0 ;
+2 x778 +1 x779 -1 x728 -1 x681 -1 x678 = 0 ;
+2 x856 +1 x857 -1 x776 -1 x779 = 0 ;
+2 x920 +1 x921 -1 x854 -1 x857 = 0 ;
+1 x1267 = 0 ;
+2 x371 +1 x372 -1 x145 -1 x143 -1 x144 = 0 ;
+2 x425 +1 x426 -1 x148 -1 x146 -1 x147 = 0 ;
+2 x467 +1 x468 -1 x151 -1 x149 -1 x150 = 0 ;
+1 x152 -1 x498 = 0 ;
+2 x551 +1 x552 -1 x426 -1 x372 -1 x369 = 0 ;
+2 x602 +1 x603 -1 x465 -1 x423 -1 x468 = 0 ;
+1 x498 -1 x637 = 0 ;
+2 x682 +1 x683 -1 x603 -1 x552 -1 x549 = 0 ;
+2 x729 +1 x730 -1 x637 -1 x600 = 0 ;
+2 x780 +1 x781 -1 x730 -1 x683 -1 x680 = 0 ;
+2 x858 +1 x859 -1 x778 -1 x781 = 0 ;
+2 x922 +1 x923 -1 x856 -1 x859 = 0 ;
+1 x1268 = 0 ;
+2 x373 +1 x374 -1 x155 -1 x153 -1 x154 = 0 ;
+2 x427 +1 x428 -1 x158 -1 x156 -1 x157 = 0 ;
+2 x469 +1 x470 -1 x161 -1 x159 -1 x160 = 0 ;
+2 x499 +1 x500 -1 x163 -1 x162 = 0 ;
+2 x553 +1 x554 -1 x428 -1 x374 -1 x371 = 0 ;
+2 x604 +1 x605 -1 x467 -1 x425 -1 x470 = 0 ;
+1 x500 -1 x638 = 0 ;
+2 x684 +1 x685 -1 x605 -1 x554 -1 x551 = 0 ;
+2 x731 +1 x732 -1 x638 -1 x602 = 0 ;
+2 x782 +1 x783 -1 x732 -1 x685 -1 x682 = 0 ;
+1 x729 -1 x826 = 0 ;
+2 x860 +1 x861 -1 x826 -1 x783 -1 x780 = 0 ;
+2 x924 +1 x925 -1 x858 -1 x861 = 0 ;
+1 x1269 = 0 ;
+2 x375 +1 x376 -1 x166 -1 x164 -1 x165 = 0 ;
+2 x429 +1 x430 -1 x169 -1 x167 -1 x168 = 0 ;
+2 x471 +1 x472 -1 x172 -1 x170 -1 x171 = 0 ;
+2 x501 +1 x502 -1 x175 -1 x173 -1 x174 = 0 ;
+2 x555 +1 x556 -1 x430 -1 x376 -1 x373 = 0 ;
+2 x606 +1 x607 -1 x469 -1 x427 -1 x472 = 0 ;
+2 x639 +1 x640 -1 x499 -1 x502 = 0 ;
+2 x686 +1 x687 -1 x607 -1 x556 -1 x553 = 0 ;
+2 x733 +1 x734 -1 x640 -1 x604 = 0 ;
+2 x784 +1 x785 -1 x734 -1 x687 -1 x684 = 0 ;
+1 x731 -1 x827 = 0 ;
+2 x862 +1 x863 -1 x827 -1 x785 -1 x782 = 0 ;
+2 x926 +1 x927 -1 x860 -1 x863 = 0 ;
+1 x1270 = 0 ;
+2 x377 +1 x378 -1 x178 -1 x176 -1 x177 = 0 ;
+2 x431 +1 x432 -1 x181 -1 x179 -1 x180 = 0 ;
+2 x473 +1 x474 -1 x184 -1 x182 -1 x183 = 0 ;
+2 x503 +1 x504 -1 x187 -1 x185 -1 x186 = 0 ;
+1 x188 -1 x522 = 0 ;
+2 x557 +1 x558 -1 x432 -1 x378 -1 x375 = 0 ;
+2 x608 +1 x609 -1 x471 -1 x429 -1 x474 = 0 ;
+2 x641 +1 x642 -1 x522 -1 x504 -1 x501 = 0 ;
+2 x688 +1 x689 -1 x609 -1 x558 -1 x555 = 0 ;
+2 x735 +1 x736 -1 x639 -1 x606 -1 x642 = 0 ;
+2 x786 +1 x787 -1 x736 -1 x689 -1 x686 = 0 ;
+1 x733 -1 x828 = 0 ;
+2 x864 +1 x865 -1 x828 -1 x787 -1 x784 = 0 ;
+2 x928 +1 x929 -1 x862 -1 x865 = 0 ;
+1 x1271 = 0 ;
+2 x379 +1 x380 -1 x191 -1 x189 -1 x190 = 0 ;
+2 x433 +1 x434 -1 x194 -1 x192 -1 x193 = 0 ;
+2 x475 +1 x476 -1 x197 -1 x195 -1 x196 = 0 ;
+2 x505 +1 x506 -1 x200 -1 x198 -1 x199 = 0 ;
+2 x523 +1 x524 -1 x202 -1 x201 = 0 ;
+2 x559 +1 x560 -1 x434 -1 x380 -1 x377 = 0 ;
+2 x610 +1 x611 -1 x473 -1 x431 -1 x476 = 0 ;
+2 x643 +1 x644 -1 x524 -1 x506 -1 x503 = 0 ;
+2 x690 +1 x691 -1 x611 -1 x560 -1 x557 = 0 ;
+2 x737 +1 x738 -1 x641 -1 x608 -1 x644 = 0 ;
+2 x788 +1 x789 -1 x738 -1 x691 -1 x688 = 0 ;
+1 x735 -1 x829 = 0 ;
+2 x866 +1 x867 -1 x829 -1 x789 -1 x786 = 0 ;
+2 x930 +1 x931 -1 x864 -1 x867 = 0 ;
+1 x1272 = 0 ;
+2 x381 +1 x382 -1 x205 -1 x203 -1 x204 = 0 ;
+2 x435 +1 x436 -1 x208 -1 x206 -1 x207 = 0 ;
+2 x477 +1 x478 -1 x211 -1 x209 -1 x210 = 0 ;
+2 x507 +1 x508 -1 x214 -1 x212 -1 x213 = 0 ;
+2 x525 +1 x526 -1 x217 -1 x215 -1 x216 = 0 ;
+2 x561 +1 x562 -1 x436 -1 x382 -1 x379 = 0 ;
+2 x612 +1 x613 -1 x475 -1 x433 -1 x478 = 0 ;
+2 x645 +1 x646 -1 x526 -1 x508 -1 x505 = 0 ;
+1 x523 -1 x661 = 0 ;
+2 x692 +1 x693 -1 x613 -1 x562 -1 x559 = 0 ;
+2 x739 +1 x740 -1 x643 -1 x610 -1 x646 = 0 ;
+1 x661 -1 x760 = 0 ;
+2 x790 +1 x791 -1 x740 -1 x693 -1 x690 = 0 ;
+2 x830 +1 x831 -1 x760 -1 x737 = 0 ;
+2 x868 +1 x869 -1 x831 -1 x791 -1 x788 = 0 ;
+2 x932 +1 x933 -1 x866 -1 x869 = 0 ;
+1 x1273 = 0 ;
+2 x383 +1 x384 -1 x220 -1 x218 -1 x219 = 0 ;
+2 x437 +1 x438 -1 x223 -1 x221 -1 x222 = 0 ;
+2 x479 +1 x480 -1 x226 -1 x224 -1 x225 = 0 ;
+2 x509 +1 x510 -1 x229 -1 x227 -1 x228 = 0 ;
+2 x527 +1 x528 -1 x232 -1 x230 -1 x231 = 0 ;
+1 x233 -1 x534 = 0 ;
+2 x563 +1 x564 -1 x438 -1 x384 -1 x381 = 0 ;
+2 x614 +1 x615 -1 x477 -1 x435 -1 x480 = 0 ;
+2 x647 +1 x648 -1 x528 -1 x510 -1 x507 = 0 ;
+2 x662 +1 x663 -1 x534 -1 x525 = 0 ;
+2 x694 +1 x695 -1 x615 -1 x564 -1 x561 = 0 ;
+2 x741 +1 x742 -1 x645 -1 x612 -1 x648 = 0 ;
+1 x663 -1 x761 = 0 ;
+2 x792 +1 x793 -1 x742 -1 x695 -1 x692 = 0 ;
+2 x832 +1 x833 -1 x761 -1 x739 = 0 ;
+2 x870 +1 x871 -1 x833 -1 x793 -1 x790 = 0 ;
+1 x830 -1 x905 = 0 ;
+2 x934 +1 x935 -1 x905 -1 x871 -1 x868 = 0 ;
+1 x1274 = 0 ;
+2 x385 +1 x386 -1 x236 -1 x234 -1 x235 = 0 ;
+2 x439 +1 x440 -1 x239 -1 x237 -1 x238 = 0 ;
+2 x481 +1 x482 -1 x242 -1 x240 -1 x241 = 0 ;
+2 x511 +1 x512 -1 x245 -1 x243 -1 x244 = 0 ;
+2 x529 +1 x530 -1 x248 -1 x246 -1 x247 = 0 ;
+2 x565 +1 x566 -1 x440 -1 x386 -1 x383 = 0 ;
+2 x616 +1 x617 -1 x479 -1 x437 -1 x482 = 0 ;
+2 x649 +1 x650 -1 x530 -1 x512 -1 x509 = 0 ;
+1 x527 -1 x664 = 0 ;
+2 x696 +1 x697 -1 x617 -1 x566 -1 x563 = 0 ;
+2 x743 +1 x744 -1 x647 -1 x614 -1 x650 = 0 ;
+2 x762 +1 x763 -1 x662 -1 x664 = 0 ;
+2 x794 +1 x795 -1 x744 -1 x697 -1 x694 = 0 ;
+2 x834 +1 x835 -1 x763 -1 x741 = 0 ;
+2 x872 +1 x873 -1 x835 -1 x795 -1 x792 = 0 ;
+1 x832 -1 x906 = 0 ;
+2 x936 +1 x937 -1 x906 -1 x873 -1 x870 = 0 ;
+1 x1275 = 0 ;
+2 x387 +1 x388 -1 x251 -1 x249 -1 x250 = 0 ;
+2 x441 +1 x442 -1 x254 -1 x252 -1 x253 = 0 ;
+2 x483 +1 x484 -1 x257 -1 x255 -1 x256 = 0 ;
+2 x513 +1 x514 -1 x260 -1 x258 -1 x259 = 0 ;
+2 x531 +1 x532 -1 x262 -1 x261 = 0 ;
+2 x567 +1 x568 -1 x442 -1 x388 -1 x385 = 0 ;
+2 x618 +1 x619 -1 x481 -1 x439 -1 x484 = 0 ;
+2 x651 +1 x652 -1 x532 -1 x514 -1 x511 = 0 ;
+1 x529 -1 x665 = 0 ;
+2 x698 +1 x699 -1 x619 -1 x568 -1 x565 = 0 ;
+2 x745 +1 x746 -1 x649 -1 x616 -1 x652 = 0 ;
+1 x665 -1 x764 = 0 ;
+2 x796 +1 x797 -1 x746 -1 x699 -1 x696 = 0 ;
+2 x836 +1 x837 -1 x762 -1 x743 -1 x764 = 0 ;
+2 x874 +1 x875 -1 x837 -1 x797 -1 x794 = 0 ;
+1 x834 -1 x907 = 0 ;
+2 x938 +1 x939 -1 x907 -1 x875 -1 x872 = 0 ;
+1 x1276 = 0 ;
+2 x389 +1 x390 -1 x265 -1 x263 -1 x264 = 0 ;
+2 x443 +1 x444 -1 x268 -1 x266 -1 x267 = 0 ;
+2 x485 +1 x486 -1 x271 -1 x269 -1 x270 = 0 ;
+2 x515 +1 x516 -1 x274 -1 x272 -1 x273 = 0 ;
+1 x275 -1 x533 = 0 ;
+2 x569 +1 x570 -1 x444 -1 x390 -1 x387 = 0 ;
+2 x620 +1 x621 -1 x483 -1 x441 -1 x486 = 0 ;
+2 x653 +1 x654 -1 x533 -1 x516 -1 x513 = 0 ;
+1 x531 -1 x666 = 0 ;
+2 x700 +1 x701 -1 x621 -1 x570 -1 x567 = 0 ;
+2 x747 +1 x748 -1 x651 -1 x618 -1 x654 = 0 ;
+1 x666 -1 x765 = 0 ;
+2 x798 +1 x799 -1 x748 -1 x701 -1 x698 = 0 ;
+2 x838 +1 x839 -1 x765 -1 x745 = 0 ;
+2 x876 +1 x877 -1 x839 -1 x799 -1 x796 = 0 ;
+1 x836 -1 x908 = 0 ;
+2 x940 +1 x941 -1 x908 -1 x877 -1 x874 = 0 ;
+1 x1277 = 0 ;
+2 x391 +1 x392 -1 x278 -1 x276 -1 x277 = 0 ;
+2 x445 +1 x446 -1 x281 -1 x279 -1 x280 = 0 ;
+2 x487 +1 x488 -1 x284 -1 x282 -1 x283 = 0 ;
+2 x517 +1 x518 -1 x287 -1 x285 -1 x286 = 0 ;
+2 x571 +1 x572 -1 x446 -1 x392 -1 x389 = 0 ;
+2 x622 +1 x623 -1 x485 -1 x443 -1 x488 = 0 ;
+2 x655 +1 x656 -1 x515 -1 x518 = 0 ;
+2 x702 +1 x703 -1 x623 -1 x572 -1 x569 = 0 ;
+2 x749 +1 x750 -1 x653 -1 x620 -1 x656 = 0 ;
+2 x800 +1 x801 -1 x750 -1 x703 -1 x700 = 0 ;
+1 x747 -1 x840 = 0 ;
+2 x878 +1 x879 -1 x840 -1 x801 -1 x798 = 0 ;
+1 x838 -1 x909 = 0 ;
+2 x942 +1 x943 -1 x909 -1 x879 -1 x876 = 0 ;
+1 x1278 = 0 ;
+2 x393 +1 x394 -1 x290 -1 x288 -1 x289 = 0 ;
+2 x447 +1 x448 -1 x293 -1 x291 -1 x292 = 0 ;
+2 x489 +1 x490 -1 x296 -1 x294 -1 x295 = 0 ;
+2 x519 +1 x520 -1 x298 -1 x297 = 0 ;
+2 x573 +1 x574 -1 x448 -1 x394 -1 x391 = 0 ;
+2 x624 +1 x625 -1 x487 -1 x445 -1 x490 = 0 ;
+2 x657 +1 x658 -1 x517 -1 x520 = 0 ;
+2 x704 +1 x705 -1 x625 -1 x574 -1 x571 = 0 ;
+2 x751 +1 x752 -1 x655 -1 x622 -1 x658 = 0 ;
+2 x802 +1 x803 -1 x752 -1 x705 -1 x702 = 0 ;
+1 x749 -1 x841 = 0 ;
+2 x880 +1 x881 -1 x841 -1 x803 -1 x800 = 0 ;
+2 x944 +1 x945 -1 x878 -1 x881 = 0 ;
+1 x1279 = 0 ;
+2 x395 +1 x396 -1 x301 -1 x299 -1 x300 = 0 ;
+2 x449 +1 x450 -1 x304 -1 x302 -1 x303 = 0 ;
+2 x491 +1 x492 -1 x307 -1 x305 -1 x306 = 0 ;
+1 x308 -1 x521 = 0 ;
+2 x575 +1 x576 -1 x450 -1 x396 -1 x393 = 0 ;
+2 x626 +1 x627 -1 x489 -1 x447 -1 x492 = 0 ;
+2 x659 +1 x660 -1 x519 -1 x521 = 0 ;
+2 x706 +1 x707 -1 x627 -1 x576 -1 x573 = 0 ;
+2 x753 +1 x754 -1 x657 -1 x624 -1 x660 = 0 ;
+2 x804 +1 x805 -1 x754 -1 x707 -1 x704 = 0 ;
+1 x751 -1 x842 = 0 ;
+2 x882 +1 x883 -1 x842 -1 x805 -1 x802 = 0 ;
+2 x946 +1 x947 -1 x880 -1 x883 = 0 ;
+1 x1280 = 0 ;
+2 x397 +1 x398 -1 x311 -1 x309 -1 x310 = 0 ;
+2 x451 +1 x452 -1 x314 -1 x312 -1 x313 = 0 ;
+2 x493 +1 x494 -1 x317 -1 x315 -1 x316 = 0 ;
+2 x577 +1 x578 -1 x452 -1 x398 -1 x395 = 0 ;
+2 x628 +1 x629 -1 x491 -1 x449 -1 x494 = 0 ;
+2 x708 +1 x709 -1 x629 -1 x578 -1 x575 = 0 ;
+2 x755 +1 x756 -1 x659 -1 x626 = 0 ;
+2 x806 +1 x807 -1 x756 -1 x709 -1 x706 = 0 ;
+1 x753 -1 x843 = 0 ;
+2 x884 +1 x885 -1 x843 -1 x807 -1 x804 = 0 ;
+2 x948 +1 x949 -1 x882 -1 x885 = 0 ;
+1 x1281 = 0 ;
+2 x399 +1 x400 -1 x320 -1 x318 -1 x319 = 0 ;
+2 x453 +1 x454 -1 x323 -1 x321 -1 x322 = 0 ;
+2 x495 +1 x496 -1 x325 -1 x324 = 0 ;
+2 x579 +1 x580 -1 x454 -1 x400 -1 x397 = 0 ;
+2 x630 +1 x631 -1 x493 -1 x451 -1 x496 = 0 ;
+2 x710 +1 x711 -1 x631 -1 x580 -1 x577 = 0 ;
+1 x628 -1 x757 = 0 ;
+2 x808 +1 x809 -1 x757 -1 x711 -1 x708 = 0 ;
+1 x755 -1 x844 = 0 ;
+2 x886 +1 x887 -1 x844 -1 x809 -1 x806 = 0 ;
+2 x950 +1 x951 -1 x884 -1 x887 = 0 ;
+1 x1282 = 0 ;
+2 x401 +1 x402 -1 x328 -1 x326 -1 x327 = 0 ;
+2 x455 +1 x456 -1 x331 -1 x329 -1 x330 = 0 ;
+1 x332 -1 x497 = 0 ;
+2 x581 +1 x582 -1 x456 -1 x402 -1 x399 = 0 ;
+2 x632 +1 x633 -1 x495 -1 x453 -1 x497 = 0 ;
+2 x712 +1 x713 -1 x633 -1 x582 -1 x579 = 0 ;
+1 x630 -1 x758 = 0 ;
+2 x810 +1 x811 -1 x758 -1 x713 -1 x710 = 0 ;
+2 x888 +1 x889 -1 x808 -1 x811 = 0 ;
+2 x952 +1 x953 -1 x886 -1 x889 = 0 ;
+1 x1283 = 0 ;
+2 x403 +1 x404 -1 x335 -1 x333 -1 x334 = 0 ;
+2 x457 +1 x458 -1 x338 -1 x336 -1 x337 = 0 ;
+2 x583 +1 x584 -1 x458 -1 x404 -1 x401 = 0 ;
+1 x455 -1 x634 = 0 ;
+2 x714 +1 x715 -1 x634 -1 x584 -1 x581 = 0 ;
+1 x632 -1 x759 = 0 ;
+2 x812 +1 x813 -1 x759 -1 x715 -1 x712 = 0 ;
+2 x890 +1 x891 -1 x810 -1 x813 = 0 ;
+2 x954 +1 x955 -1 x888 -1 x891 = 0 ;
+1 x1284 = 0 ;
+2 x405 +1 x406 -1 x341 -1 x339 -1 x340 = 0 ;
+2 x459 +1 x460 -1 x343 -1 x342 = 0 ;
+2 x585 +1 x586 -1 x460 -1 x406 -1 x403 = 0 ;
+1 x457 -1 x635 = 0 ;
+2 x716 +1 x717 -1 x635 -1 x586 -1 x583 = 0 ;
+2 x814 +1 x815 -1 x714 -1 x717 = 0 ;
+2 x892 +1 x893 -1 x812 -1 x815 = 0 ;
+2 x956 +1 x957 -1 x890 -1 x893 = 0 ;
+1 x1285 = 0 ;
+2 x407 +1 x408 -1 x346 -1 x344 -1 x345 = 0 ;
+1 x347 -1 x461 = 0 ;
+2 x587 +1 x588 -1 x461 -1 x408 -1 x405 = 0 ;
+1 x459 -1 x636 = 0 ;
+2 x718 +1 x719 -1 x636 -1 x588 -1 x585 = 0 ;
+2 x816 +1 x817 -1 x716 -1 x719 = 0 ;
+2 x894 +1 x895 -1 x814 -1 x817 = 0 ;
+2 x958 +1 x959 -1 x892 -1 x895 = 0 ;
+1 x1286 = 0 ;
+2 x409 +1 x410 -1 x350 -1 x348 -1 x349 = 0 ;
+2 x589 +1 x590 -1 x407 -1 x410 = 0 ;
+2 x720 +1 x721 -1 x587 -1 x590 = 0 ;
+2 x818 +1 x819 -1 x718 -1 x721 = 0 ;
+2 x896 +1 x897 -1 x816 -1 x819 = 0 ;
+2 x960 +1 x961 -1 x894 -1 x897 = 0 ;
+1 x1287 = 0 ;
+2 x411 +1 x412 -1 x352 -1 x351 = 0 ;
+2 x591 +1 x592 -1 x409 -1 x412 = 0 ;
+2 x722 +1 x723 -1 x589 -1 x592 = 0 ;
+2 x820 +1 x821 -1 x720 -1 x723 = 0 ;
+2 x898 +1 x899 -1 x818 -1 x821 = 0 ;
+2 x962 +1 x963 -1 x896 -1 x899 = 0 ;
+1 x1288 = 0 ;
+1 x353 -1 x413 = 0 ;
+2 x593 +1 x594 -1 x411 -1 x413 = 0 ;
+2 x724 +1 x725 -1 x591 -1 x594 = 0 ;
+2 x822 +1 x823 -1 x722 -1 x725 = 0 ;
+2 x900 +1 x901 -1 x820 -1 x823 = 0 ;
+2 x964 +1 x965 -1 x898 -1 x901 = 0 ;
+1 x1289 = 0 ;
+1 x593 -1 x726 = 0 ;
+2 x824 +1 x825 -1 x724 -1 x726 = 0 ;
+2 x902 +1 x903 -1 x822 -1 x825 = 0 ;
+2 x966 +1 x967 -1 x900 -1 x903 = 0 ;
+1 x824 -1 x904 = 0 ;
+2 x968 +1 x969 -1 x902 -1 x904 = 0 ;
+1 x970 -1 x98 = 0 ;
+1 x971 -1 x100 = 0 ;
+1 x972 -1 x103 = 0 ;
+1 x973 -1 x107 = 0 ;
+1 x974 -1 x112 = 0 ;
+1 x975 -1 x118 = 0 ;
+1 x976 -1 x125 = 0 ;
+1 x977 -1 x133 = 0 ;
+1 x978 -1 x142 = 0 ;
+1 x979 -1 x152 = 0 ;
+1 x980 -1 x163 = 0 ;
+1 x981 -1 x175 = 0 ;
+1 x982 -1 x188 = 0 ;
+1 x983 -1 x202 = 0 ;
+1 x984 -1 x217 = 0 ;
+1 x985 -1 x233 = 0 ;
+1 x986 -1 x99 = 0 ;
+1 x987 -1 x102 = 0 ;
+1 x988 -1 x106 = 0 ;
+1 x989 -1 x111 = 0 ;
+1 x990 -1 x117 = 0 ;
+1 x991 -1 x124 = 0 ;
+1 x992 -1 x132 = 0 ;
+1 x993 -1 x141 = 0 ;
+1 x994 -1 x151 = 0 ;
+1 x995 -1 x162 = 0 ;
+1 x996 -1 x174 = 0 ;
+1 x997 -1 x187 = 0 ;
+1 x998 -1 x201 = 0 ;
+1 x999 -1 x216 = 0 ;
+1 x1000 -1 x232 = 0 ;
+1 x1001 -1 x248 = 0 ;
+1 x1002 -1 x101 = 0 ;
+1 x1003 -1 x105 = 0 ;
+1 x1004 -1 x110 = 0 ;
+1 x1005 -1 x116 = 0 ;
+1 x1006 -1 x123 = 0 ;
+1 x1007 -1 x131 = 0 ;
+1 x1008 -1 x140 = 0 ;
+1 x1009 -1 x150 = 0 ;
+1 x1010 -1 x161 = 0 ;
+1 x1011 -1 x173 = 0 ;
+1 x1012 -1 x186 = 0 ;
+1 x1013 -1 x200 = 0 ;
+1 x1014 -1 x215 = 0 ;
+1 x1015 -1 x231 = 0 ;
+1 x1016 -1 x247 = 0 ;
+1 x1017 -1 x262 = 0 ;
+1 x1018 -1 x104 = 0 ;
+1 x1019 -1 x109 = 0 ;
+1 x1020 -1 x115 = 0 ;
+1 x1021 -1 x122 = 0 ;
+1 x1022 -1 x130 = 0 ;
+1 x1023 -1 x139 = 0 ;
+1 x1024 -1 x149 = 0 ;
+1 x1025 -1 x160 = 0 ;
+1 x1026 -1 x172 = 0 ;
+1 x1027 -1 x185 = 0 ;
+1 x1028 -1 x199 = 0 ;
+1 x1029 -1 x214 = 0 ;
+1 x1030 -1 x230 = 0 ;
+1 x1031 -1 x246 = 0 ;
+1 x1032 -1 x261 = 0 ;
+1 x1033 -1 x275 = 0 ;
+1 x1034 -1 x108 = 0 ;
+1 x1035 -1 x114 = 0 ;
+1 x1036 -1 x121 = 0 ;
+1 x1037 -1 x129 = 0 ;
+1 x1038 -1 x138 = 0 ;
+1 x1039 -1 x148 = 0 ;
+1 x1040 -1 x159 = 0 ;
+1 x1041 -1 x171 = 0 ;
+1 x1042 -1 x184 = 0 ;
+1 x1043 -1 x198 = 0 ;
+1 x1044 -1 x213 = 0 ;
+1 x1045 -1 x229 = 0 ;
+1 x1046 -1 x245 = 0 ;
+1 x1047 -1 x260 = 0 ;
+1 x1048 -1 x274 = 0 ;
+1 x1049 -1 x287 = 0 ;
+1 x1050 -1 x113 = 0 ;
+1 x1051 -1 x120 = 0 ;
+1 x1052 -1 x128 = 0 ;
+1 x1053 -1 x137 = 0 ;
+1 x1054 -1 x147 = 0 ;
+1 x1055 -1 x158 = 0 ;
+1 x1056 -1 x170 = 0 ;
+1 x1057 -1 x183 = 0 ;
+1 x1058 -1 x197 = 0 ;
+1 x1059 -1 x212 = 0 ;
+1 x1060 -1 x228 = 0 ;
+1 x1061 -1 x244 = 0 ;
+1 x1062 -1 x259 = 0 ;
+1 x1063 -1 x273 = 0 ;
+1 x1064 -1 x286 = 0 ;
+1 x1065 -1 x298 = 0 ;
+1 x1066 -1 x119 = 0 ;
+1 x1067 -1 x127 = 0 ;
+1 x1068 -1 x136 = 0 ;
+1 x1069 -1 x146 = 0 ;
+1 x1070 -1 x157 = 0 ;
+1 x1071 -1 x169 = 0 ;
+1 x1072 -1 x182 = 0 ;
+1 x1073 -1 x196 = 0 ;
+1 x1074 -1 x211 = 0 ;
+1 x1075 -1 x227 = 0 ;
+1 x1076 -1 x243 = 0 ;
+1 x1077 -1 x258 = 0 ;
+1 x1078 -1 x272 = 0 ;
+1 x1079 -1 x285 = 0 ;
+1 x1080 -1 x297 = 0 ;
+1 x1081 -1 x308 = 0 ;
+1 x1082 -1 x126 = 0 ;
+1 x1083 -1 x135 = 0 ;
+1 x1084 -1 x145 = 0 ;
+1 x1085 -1 x156 = 0 ;
+1 x1086 -1 x168 = 0 ;
+1 x1087 -1 x181 = 0 ;
+1 x1088 -1 x195 = 0 ;
+1 x1089 -1 x210 = 0 ;
+1 x1090 -1 x226 = 0 ;
+1 x1091 -1 x242 = 0 ;
+1 x1092 -1 x257 = 0 ;
+1 x1093 -1 x271 = 0 ;
+1 x1094 -1 x284 = 0 ;
+1 x1095 -1 x296 = 0 ;
+1 x1096 -1 x307 = 0 ;
+1 x1097 -1 x317 = 0 ;
+1 x1098 -1 x134 = 0 ;
+1 x1099 -1 x144 = 0 ;
+1 x1100 -1 x155 = 0 ;
+1 x1101 -1 x167 = 0 ;
+1 x1102 -1 x180 = 0 ;
+1 x1103 -1 x194 = 0 ;
+1 x1104 -1 x209 = 0 ;
+1 x1105 -1 x225 = 0 ;
+1 x1106 -1 x241 = 0 ;
+1 x1107 -1 x256 = 0 ;
+1 x1108 -1 x270 = 0 ;
+1 x1109 -1 x283 = 0 ;
+1 x1110 -1 x295 = 0 ;
+1 x1111 -1 x306 = 0 ;
+1 x1112 -1 x316 = 0 ;
+1 x1113 -1 x325 = 0 ;
+1 x1114 -1 x143 = 0 ;
+1 x1115 -1 x154 = 0 ;
+1 x1116 -1 x166 = 0 ;
+1 x1117 -1 x179 = 0 ;
+1 x1118 -1 x193 = 0 ;
+1 x1119 -1 x208 = 0 ;
+1 x1120 -1 x224 = 0 ;
+1 x1121 -1 x240 = 0 ;
+1 x1122 -1 x255 = 0 ;
+1 x1123 -1 x269 = 0 ;
+1 x1124 -1 x282 = 0 ;
+1 x1125 -1 x294 = 0 ;
+1 x1126 -1 x305 = 0 ;
+1 x1127 -1 x315 = 0 ;
+1 x1128 -1 x324 = 0 ;
+1 x1129 -1 x332 = 0 ;
+1 x1130 -1 x153 = 0 ;
+1 x1131 -1 x165 = 0 ;
+1 x1132 -1 x178 = 0 ;
+1 x1133 -1 x192 = 0 ;
+1 x1134 -1 x207 = 0 ;
+1 x1135 -1 x223 = 0 ;
+1 x1136 -1 x239 = 0 ;
+1 x1137 -1 x254 = 0 ;
+1 x1138 -1 x268 = 0 ;
+1 x1139 -1 x281 = 0 ;
+1 x1140 -1 x293 = 0 ;
+1 x1141 -1 x304 = 0 ;
+1 x1142 -1 x314 = 0 ;
+1 x1143 -1 x323 = 0 ;
+1 x1144 -1 x331 = 0 ;
+1 x1145 -1 x338 = 0 ;
+1 x1146 -1 x164 = 0 ;
+1 x1147 -1 x177 = 0 ;
+1 x1148 -1 x191 = 0 ;
+1 x1149 -1 x206 = 0 ;
+1 x1150 -1 x222 = 0 ;
+1 x1151 -1 x238 = 0 ;
+1 x1152 -1 x253 = 0 ;
+1 x1153 -1 x267 = 0 ;
+1 x1154 -1 x280 = 0 ;
+1 x1155 -1 x292 = 0 ;
+1 x1156 -1 x303 = 0 ;
+1 x1157 -1 x313 = 0 ;
+1 x1158 -1 x322 = 0 ;
+1 x1159 -1 x330 = 0 ;
+1 x1160 -1 x337 = 0 ;
+1 x1161 -1 x343 = 0 ;
+1 x1162 -1 x176 = 0 ;
+1 x1163 -1 x190 = 0 ;
+1 x1164 -1 x205 = 0 ;
+1 x1165 -1 x221 = 0 ;
+1 x1166 -1 x237 = 0 ;
+1 x1167 -1 x252 = 0 ;
+1 x1168 -1 x266 = 0 ;
+1 x1169 -1 x279 = 0 ;
+1 x1170 -1 x291 = 0 ;
+1 x1171 -1 x302 = 0 ;
+1 x1172 -1 x312 = 0 ;
+1 x1173 -1 x321 = 0 ;
+1 x1174 -1 x329 = 0 ;
+1 x1175 -1 x336 = 0 ;
+1 x1176 -1 x342 = 0 ;
+1 x1177 -1 x347 = 0 ;
+1 x1178 -1 x189 = 0 ;
+1 x1179 -1 x204 = 0 ;
+1 x1180 -1 x220 = 0 ;
+1 x1181 -1 x236 = 0 ;
+1 x1182 -1 x251 = 0 ;
+1 x1183 -1 x265 = 0 ;
+1 x1184 -1 x278 = 0 ;
+1 x1185 -1 x290 = 0 ;
+1 x1186 -1 x301 = 0 ;
+1 x1187 -1 x311 = 0 ;
+1 x1188 -1 x320 = 0 ;
+1 x1189 -1 x328 = 0 ;
+1 x1190 -1 x335 = 0 ;
+1 x1191 -1 x341 = 0 ;
+1 x1192 -1 x346 = 0 ;
+1 x1193 -1 x350 = 0 ;
+1 x1194 -1 x203 = 0 ;
+1 x1195 -1 x219 = 0 ;
+1 x1196 -1 x235 = 0 ;
+1 x1197 -1 x250 = 0 ;
+1 x1198 -1 x264 = 0 ;
+1 x1199 -1 x277 = 0 ;
+1 x1200 -1 x289 = 0 ;
+1 x1201 -1 x300 = 0 ;
+1 x1202 -1 x310 = 0 ;
+1 x1203 -1 x319 = 0 ;
+1 x1204 -1 x327 = 0 ;
+1 x1205 -1 x334 = 0 ;
+1 x1206 -1 x340 = 0 ;
+1 x1207 -1 x345 = 0 ;
+1 x1208 -1 x349 = 0 ;
+1 x1209 -1 x352 = 0 ;
+1 x1210 -1 x218 = 0 ;
+1 x1211 -1 x234 = 0 ;
+1 x1212 -1 x249 = 0 ;
+1 x1213 -1 x263 = 0 ;
+1 x1214 -1 x276 = 0 ;
+1 x1215 -1 x288 = 0 ;
+1 x1216 -1 x299 = 0 ;
+1 x1217 -1 x309 = 0 ;
+1 x1218 -1 x318 = 0 ;
+1 x1219 -1 x326 = 0 ;
+1 x1220 -1 x333 = 0 ;
+1 x1221 -1 x339 = 0 ;
+1 x1222 -1 x344 = 0 ;
+1 x1223 -1 x348 = 0 ;
+1 x1224 -1 x351 = 0 ;
+1 x1225 -1 x353 = 0 ;
+2 x1226 +1 x1 -1 x910 -1 x1258 = 0 ;
+2 x1227 +1 x2 -1 x911 -1 x1226 -1 x1259 = 0 ;
+2 x1228 +1 x3 -1 x912 -1 x1227 -1 x1260 = 0 ;
+2 x1229 +1 x4 -1 x913 -1 x1228 -1 x1261 = 0 ;
+2 x1230 +1 x5 -1 x914 -1 x1229 -1 x1262 = 0 ;
+2 x1231 +1 x6 -1 x915 -1 x1230 -1 x1263 = 0 ;
+2 x1232 +1 x7 -1 x917 -1 x1231 -1 x1264 = 0 ;
+2 x1233 +1 x8 -1 x919 -1 x1232 -1 x916 = 0 ;
+2 x1234 +1 x9 -1 x921 -1 x1233 -1 x918 = 0 ;
+2 x1235 +1 x10 -1 x923 -1 x1234 -1 x920 = 0 ;
+2 x1236 +1 x11 -1 x925 -1 x1235 -1 x922 = 0 ;
+2 x1237 +1 x12 -1 x927 -1 x1236 -1 x924 = 0 ;
+2 x1238 +1 x13 -1 x929 -1 x1237 -1 x926 = 0 ;
+2 x1239 +1 x14 -1 x931 -1 x1238 -1 x928 = 0 ;
+2 x1240 +1 x15 -1 x933 -1 x1239 -1 x930 = 0 ;
+2 x1241 +1 x16 -1 x935 -1 x1240 -1 x932 = 0 ;
+2 x1242 +1 x17 -1 x937 -1 x1241 -1 x934 = 0 ;
+2 x1243 +1 x18 -1 x939 -1 x1242 -1 x936 = 0 ;
+2 x1244 +1 x19 -1 x941 -1 x1243 -1 x938 = 0 ;
+2 x1245 +1 x20 -1 x943 -1 x1244 -1 x940 = 0 ;
+2 x1246 +1 x21 -1 x945 -1 x1245 -1 x942 = 0 ;
+2 x1247 +1 x22 -1 x947 -1 x1246 -1 x944 = 0 ;
+2 x1248 +1 x23 -1 x949 -1 x1247 -1 x946 = 0 ;
+2 x1249 +1 x24 -1 x951 -1 x1248 -1 x948 = 0 ;
+2 x1250 +1 x25 -1 x953 -1 x1249 -1 x950 = 0 ;
+2 x1251 +1 x26 -1 x955 -1 x1250 -1 x952 = 0 ;
+2 x1252 +1 x27 -1 x957 -1 x1251 -1 x954 = 0 ;
+2 x1253 +1 x28 -1 x959 -1 x1252 -1 x956 = 0 ;
+2 x1254 +1 x29 -1 x961 -1 x1253 -1 x958 = 0 ;
+2 x1255 +1 x30 -1 x963 -1 x1254 -1 x960 = 0 ;
+2 x1256 +1 x31 -1 x965 -1 x1255 -1 x962 = 0 ;
+2 x1257 +1 x32 -1 x967 -1 x1256 -1 x964 = 0 ;
+1 x1257 -1 x33 = 0 ;
